119 48 011 1
1
440 113 1
429 114 1
335 115 1
408 116 1
468 117 1
498 118 1
484 119 1
409 108 1
391 109 1
358 110 1
471 111 1
534 112 1
421 113 1
517 114 1
412 115 1
412 116 1
475 117 1
396 118 1
364 119 1
453 108 1
409 109 1
399 110 1
325 111 1
394 112 1
449 113 1
353 114 1
493 115 1
441 116 1
446 117 1
449 118 1
389 119 1
455 108 1
370 109 1
339 110 1
379 111 1
364 112 1
382 113 1
389 114 1
364 115 1
405 116 1
432 117 1
463 118 1
530 119 1
385 108 1
464 109 1
424 110 1
406 111 1
326 112 1
1
1
1
1
1
1
1
1
1
1
1
1
1
1
1
1
1
1
1
1
1
1
1
1
1
1
1
1
1
1
1
1
1
1
1
1
1
1
1
1
1
1
1
1
1
1
1
1
1
1
1
1
1
1
1
1
1
1
1 9 408 21 452 33 454 45 384
1 10 390 22 408 34 369 46 463
1 11 357 23 398 35 338 47 423
1 12 470 24 324 36 378 48 405
1 13 533 25 393 37 363 49 325
1 2 439 14 420 26 448 38 381
1 3 428 15 516 27 352 39 388
1 4 334 16 411 28 492 40 363
1 5 407 17 411 29 440 41 404
1 6 467 18 474 30 445 42 431
1 7 497 19 395 31 448 43 462
1 8 483 20 363 32 388 44 529
